p edge 64 512
e 1 13
e 1 23
e 1 49
e 1 18
e 1 17
e 1 5
e 1 50
e 1 48
e 1 26
e 1 28
e 1 15
e 2 9
e 2 36
e 2 18
e 2 53
e 2 43
e 2 54
e 2 19
e 2 37
e 2 47
e 2 63
e 2 51
e 2 40
e 2 31
e 2 48
e 2 38
e 2 4
e 3 14
e 3 59
e 3 37
e 3 40
e 3 58
e 3 8
e 3 42
e 3 31
e 3 47
e 3 63
e 3 64
e 3 5
e 3 46
e 3 17
e 3 13
e 4 57
e 4 7
e 4 21
e 4 45
e 4 59
e 4 6
e 4 15
e 4 19
e 4 26
e 4 35
e 4 8
e 4 58
e 4 36
e 4 17
e 5 11
e 5 34
e 5 7
e 5 18
e 5 17
e 5 55
e 5 23
e 5 41
e 5 60
e 5 51
e 5 16
e 5 27
e 5 25
e 5 49
e 5 12
e 6 58
e 6 34
e 6 36
e 6 15
e 6 29
e 6 56
e 6 7
e 6 8
e 6 60
e 6 40
e 6 22
e 6 41
e 6 47
e 6 26
e 6 64
e 7 50
e 7 51
e 7 39
e 7 11
e 7 54
e 7 22
e 7 38
e 7 14
e 7 47
e 7 37
e 7 34
e 7 24
e 7 57
e 7 41
e 7 20
e 8 51
e 8 64
e 8 42
e 8 30
e 8 39
e 8 60
e 8 27
e 8 58
e 8 49
e 8 31
e 8 41
e 8 17
e 8 38
e 8 23
e 8 55
e 8 48
e 9 22
e 9 58
e 9 31
e 9 55
e 9 63
e 9 47
e 9 24
e 9 28
e 9 23
e 9 30
e 9 41
e 9 39
e 9 11
e 9 46
e 10 64
e 10 55
e 10 47
e 10 31
e 10 46
e 10 56
e 10 14
e 10 30
e 10 21
e 10 51
e 10 62
e 10 13
e 11 20
e 11 49
e 11 24
e 11 35
e 11 60
e 11 13
e 11 28
e 11 48
e 11 23
e 11 37
e 11 46
e 12 47
e 12 26
e 12 16
e 12 37
e 12 14
e 12 44
e 12 39
e 12 59
e 12 54
e 12 32
e 12 40
e 12 17
e 12 55
e 12 52
e 13 54
e 13 25
e 13 49
e 13 41
e 13 18
e 13 27
e 13 56
e 13 52
e 13 16
e 13 26
e 13 38
e 14 43
e 14 64
e 14 51
e 14 38
e 14 62
e 14 37
e 14 20
e 14 36
e 14 16
e 14 29
e 14 50
e 14 59
e 14 24
e 15 42
e 15 32
e 15 26
e 15 28
e 15 39
e 15 38
e 15 19
e 15 17
e 15 18
e 16 47
e 16 43
e 16 35
e 16 48
e 16 29
e 16 39
e 16 18
e 16 62
e 16 25
e 17 52
e 17 44
e 17 20
e 17 29
e 17 32
e 17 60
e 17 61
e 17 18
e 17 55
e 17 46
e 17 39
e 17 59
e 18 28
e 18 29
e 18 19
e 18 26
e 18 34
e 18 23
e 18 30
e 18 49
e 18 58
e 18 21
e 18 41
e 18 42
e 18 50
e 19 53
e 19 35
e 19 51
e 19 37
e 19 30
e 19 41
e 19 39
e 19 47
e 19 46
e 19 45
e 19 44
e 19 60
e 19 20
e 20 44
e 20 45
e 20 63
e 20 55
e 20 39
e 20 41
e 20 40
e 20 50
e 20 25
e 21 46
e 21 52
e 21 49
e 21 51
e 21 30
e 21 41
e 21 42
e 21 58
e 21 36
e 21 34
e 22 54
e 22 43
e 22 41
e 22 63
e 22 29
e 22 62
e 22 34
e 22 30
e 22 53
e 22 56
e 22 58
e 22 32
e 22 37
e 22 39
e 22 35
e 23 47
e 23 61
e 23 44
e 23 53
e 23 26
e 23 54
e 23 34
e 23 43
e 23 55
e 23 28
e 23 48
e 23 30
e 23 63
e 23 42
e 23 32
e 24 61
e 24 34
e 24 57
e 24 43
e 24 25
e 24 31
e 24 63
e 24 46
e 24 49
e 25 27
e 25 32
e 25 42
e 25 47
e 25 34
e 25 60
e 25 62
e 25 37
e 25 57
e 25 61
e 25 31
e 25 46
e 25 54
e 26 53
e 26 27
e 26 48
e 26 62
e 26 33
e 26 47
e 26 29
e 26 38
e 26 43
e 26 59
e 26 41
e 27 63
e 27 64
e 27 39
e 27 33
e 27 46
e 27 61
e 27 44
e 27 49
e 27 52
e 27 42
e 28 49
e 28 35
e 28 61
e 28 36
e 28 29
e 28 53
e 28 37
e 28 45
e 28 30
e 28 38
e 28 41
e 28 40
e 29 64
e 29 36
e 29 51
e 29 49
e 29 45
e 29 48
e 29 61
e 29 44
e 29 46
e 29 60
e 29 31
e 29 57
e 30 64
e 30 58
e 30 54
e 30 38
e 30 46
e 30 57
e 30 49
e 31 44
e 31 32
e 31 38
e 31 55
e 31 39
e 31 35
e 31 40
e 31 54
e 31 64
e 32 40
e 32 53
e 32 34
e 32 52
e 32 44
e 32 64
e 32 49
e 32 56
e 32 45
e 32 59
e 33 46
e 33 45
e 33 59
e 33 54
e 33 34
e 33 52
e 33 55
e 33 48
e 33 49
e 33 35
e 34 39
e 34 35
e 34 48
e 34 58
e 34 61
e 34 41
e 34 46
e 34 55
e 35 54
e 35 57
e 35 42
e 35 58
e 35 41
e 35 51
e 35 53
e 35 56
e 35 39
e 35 49
e 36 48
e 36 43
e 36 62
e 36 58
e 36 47
e 36 38
e 36 63
e 36 40
e 37 62
e 37 47
e 37 52
e 38 54
e 38 49
e 38 41
e 38 56
e 38 62
e 38 52
e 39 60
e 39 57
e 39 52
e 39 63
e 39 51
e 40 49
e 40 61
e 40 54
e 40 44
e 41 47
e 41 60
e 41 62
e 41 58
e 41 54
e 41 48
e 42 56
e 42 61
e 42 43
e 42 64
e 42 48
e 42 54
e 42 47
e 43 63
e 43 44
e 44 53
e 44 56
e 44 54
e 44 48
e 44 62
e 45 50
e 45 56
e 45 59
e 45 46
e 45 53
e 45 61
e 45 48
e 45 49
e 46 49
e 46 48
e 46 54
e 46 58
e 47 54
e 47 50
e 47 61
e 48 62
e 48 61
e 48 50
e 48 64
e 49 55
e 49 53
e 49 60
e 50 64
e 50 55
e 50 51
e 51 54
e 51 56
e 51 64
e 51 62
e 52 60
e 52 57
e 52 64
e 53 56
e 53 64
e 53 57
e 54 60
e 54 59
e 55 62
e 56 58
e 56 57
e 56 62
e 56 59
e 56 64
e 57 64
e 57 60
e 58 63
e 60 61
e 60 63
